c nIsolatedPIs 0
c maxPI 32
p cnf 198 499
c gate 33 15 -31 0
15 -33 0
-31 -33 0
-15 31 33 0
c gate 34 -13 29 0
-13 -34 0
29 -34 0
13 -29 34 0
c gate 35 14 -30 0
14 -35 0
-30 -35 0
-14 30 35 0
c gate 36 -14 30 0
-14 -36 0
30 -36 0
14 -30 36 0
c gate 37 -35 -36 0
-35 -37 0
-36 -37 0
35 36 37 0
c gate 38 34 37 0
34 -38 0
37 -38 0
-34 -37 38 0
c gate 39 12 -28 0
12 -39 0
-28 -39 0
-12 28 39 0
c gate 40 11 -27 0
11 -40 0
-27 -40 0
-11 27 40 0
c gate 41 -10 26 0
-10 -41 0
26 -41 0
10 -26 41 0
c gate 42 10 -26 0
10 -42 0
-26 -42 0
-10 26 42 0
c gate 43 -9 25 0
-9 -43 0
25 -43 0
9 -25 43 0
c gate 44 7 -23 0
7 -44 0
-23 -44 0
-7 23 44 0
c gate 45 -6 22 0
-6 -45 0
22 -45 0
6 -22 45 0
c gate 46 2 -18 0
2 -46 0
-18 -46 0
-2 18 46 0
c gate 47 -1 17 0
-1 -47 0
17 -47 0
1 -17 47 0
c gate 48 -46 47 0
-46 -48 0
47 -48 0
46 -47 48 0
c gate 49 -3 19 0
-3 -49 0
19 -49 0
3 -19 49 0
c gate 50 -2 18 0
-2 -50 0
18 -50 0
2 -18 50 0
c gate 51 -49 -50 0
-49 -51 0
-50 -51 0
49 50 51 0
c gate 52 -48 51 0
-48 -52 0
51 -52 0
48 -51 52 0
c gate 53 4 -20 0
4 -53 0
-20 -53 0
-4 20 53 0
c gate 54 3 -19 0
3 -54 0
-19 -54 0
-3 19 54 0
c gate 55 -53 -54 0
-53 -55 0
-54 -55 0
53 54 55 0
c gate 56 -52 55 0
-52 -56 0
55 -56 0
52 -55 56 0
c gate 57 -5 21 0
-5 -57 0
21 -57 0
5 -21 57 0
c gate 58 -4 20 0
-4 -58 0
20 -58 0
4 -20 58 0
c gate 59 -57 -58 0
-57 -59 0
-58 -59 0
57 58 59 0
c gate 60 -56 59 0
-56 -60 0
59 -60 0
56 -59 60 0
c gate 61 6 -22 0
6 -61 0
-22 -61 0
-6 22 61 0
c gate 62 5 -21 0
5 -62 0
-21 -62 0
-5 21 62 0
c gate 63 -61 -62 0
-61 -63 0
-62 -63 0
61 62 63 0
c gate 64 -60 63 0
-60 -64 0
63 -64 0
60 -63 64 0
c gate 65 -45 -64 0
-45 -65 0
-64 -65 0
45 64 65 0
c gate 66 -44 -65 0
-44 -66 0
-65 -66 0
44 65 66 0
c gate 67 -7 23 0
-7 -67 0
23 -67 0
7 -23 67 0
c gate 68 -8 24 0
-8 -68 0
24 -68 0
8 -24 68 0
c gate 69 -67 -68 0
-67 -69 0
-68 -69 0
67 68 69 0
c gate 70 -66 69 0
-66 -70 0
69 -70 0
66 -69 70 0
c gate 71 8 -24 0
8 -71 0
-24 -71 0
-8 24 71 0
c gate 72 9 -25 0
9 -72 0
-25 -72 0
-9 25 72 0
c gate 73 -71 -72 0
-71 -73 0
-72 -73 0
71 72 73 0
c gate 74 -70 73 0
-70 -74 0
73 -74 0
70 -73 74 0
c gate 75 -43 -74 0
-43 -75 0
-74 -75 0
43 74 75 0
c gate 76 -42 -75 0
-42 -76 0
-75 -76 0
42 75 76 0
c gate 77 -41 -76 0
-41 -77 0
-76 -77 0
41 76 77 0
c gate 78 -40 -77 0
-40 -78 0
-77 -78 0
40 77 78 0
c gate 79 -12 28 0
-12 -79 0
28 -79 0
12 -28 79 0
c gate 80 -11 27 0
-11 -80 0
27 -80 0
11 -27 80 0
c gate 81 -79 -80 0
-79 -81 0
-80 -81 0
79 80 81 0
c gate 82 -78 81 0
-78 -82 0
81 -82 0
78 -81 82 0
c gate 83 -39 -82 0
-39 -83 0
-82 -83 0
39 82 83 0
c gate 84 13 -29 0
13 -84 0
-29 -84 0
-13 29 84 0
c gate 85 -35 -84 0
-35 -85 0
-84 -85 0
35 84 85 0
c gate 86 83 85 0
83 -86 0
85 -86 0
-83 -85 86 0
c gate 87 -15 31 0
-15 -87 0
31 -87 0
15 -31 87 0
c gate 88 -36 -87 0
-36 -88 0
-87 -88 0
36 87 88 0
c gate 89 -86 88 0
-86 -89 0
88 -89 0
86 -88 89 0
c gate 90 -38 89 0
-38 -90 0
89 -90 0
38 -89 90 0
c gate 91 -33 -90 0
-33 -91 0
-90 -91 0
33 90 91 0
c gate 92 -16 -32 0
-16 -92 0
-32 -92 0
16 32 92 0
c gate 93 16 32 0
16 -93 0
32 -93 0
-16 -32 93 0
c gate 94 -92 -93 0
-92 -94 0
-93 -94 0
92 93 94 0
c gate 95 91 -94 0
91 -95 0
-94 -95 0
-91 94 95 0
c gate 96 -91 94 0
-91 -96 0
94 -96 0
91 -94 96 0
c gate 97 -95 -96 0
-95 -97 0
-96 -97 0
95 96 97 0
c gate 98 -89 -94 0
-89 -98 0
-94 -98 0
89 94 98 0
c gate 99 89 94 0
89 -99 0
94 -99 0
-89 -94 99 0
c gate 100 -98 -99 0
-98 -100 0
-99 -100 0
98 99 100 0
c gate 101 97 -100 0
97 -101 0
-100 -101 0
-97 100 101 0
c gate 102 -97 100 0
-97 -102 0
100 -102 0
97 -100 102 0
c gate 103 -101 -102 0
-101 -103 0
-102 -103 0
101 102 103 0
c gate 104 -33 -87 0
-33 -104 0
-87 -104 0
33 87 104 0
c gate 105 38 104 0
38 -105 0
104 -105 0
-38 -104 105 0
c gate 106 -83 105 0
-83 -106 0
105 -106 0
83 -105 106 0
c gate 107 34 -83 0
34 -107 0
-83 -107 0
-34 83 107 0
c gate 108 -9 -25 0
-9 -108 0
-25 -108 0
9 25 108 0
c gate 109 -68 -71 0
-68 -109 0
-71 -109 0
68 71 109 0
c gate 110 7 23 0
7 -110 0
23 -110 0
-7 -23 110 0
c gate 111 4 20 0
4 -111 0
20 -111 0
-4 -20 111 0
c gate 112 3 19 0
3 -112 0
19 -112 0
-3 -19 112 0
c gate 113 -111 -112 0
-111 -113 0
-112 -113 0
111 112 113 0
c gate 114 1 17 0
1 -114 0
17 -114 0
-1 -17 114 0
c gate 115 2 18 0
2 -115 0
18 -115 0
-2 -18 115 0
c gate 116 -114 -115 0
-114 -116 0
-115 -116 0
114 115 116 0
c gate 117 -3 -19 0
-3 -117 0
-19 -117 0
3 19 117 0
c gate 118 -116 -117 0
-116 -118 0
-117 -118 0
116 117 118 0
c gate 119 113 -118 0
113 -119 0
-118 -119 0
-113 118 119 0
c gate 120 -5 -21 0
-5 -120 0
-21 -120 0
5 21 120 0
c gate 121 -4 -20 0
-4 -121 0
-20 -121 0
4 20 121 0
c gate 122 -120 -121 0
-120 -122 0
-121 -122 0
120 121 122 0
c gate 123 -119 122 0
-119 -123 0
122 -123 0
119 -122 123 0
c gate 124 -2 -18 0
-2 -124 0
-18 -124 0
2 18 124 0
c gate 125 113 124 0
113 -125 0
124 -125 0
-113 -124 125 0
c gate 126 123 -125 0
123 -126 0
-125 -126 0
-123 125 126 0
c gate 127 5 21 0
5 -127 0
21 -127 0
-5 -21 127 0
c gate 128 6 22 0
6 -128 0
22 -128 0
-6 -22 128 0
c gate 129 -127 -128 0
-127 -129 0
-128 -129 0
127 128 129 0
c gate 130 -126 129 0
-126 -130 0
129 -130 0
126 -129 130 0
c gate 131 -123 130 0
-123 -131 0
130 -131 0
123 -130 131 0
c gate 132 -7 -23 0
-7 -132 0
-23 -132 0
7 23 132 0
c gate 133 -131 -132 0
-131 -133 0
-132 -133 0
131 132 133 0
c gate 134 -110 -133 0
-110 -134 0
-133 -134 0
110 133 134 0
c gate 135 -109 -134 0
-109 -135 0
-134 -135 0
109 134 135 0
c gate 136 8 24 0
8 -136 0
24 -136 0
-8 -24 136 0
c gate 137 -135 -136 0
-135 -137 0
-136 -137 0
135 136 137 0
c gate 138 -108 -137 0
-108 -138 0
-137 -138 0
108 137 138 0
c gate 139 10 26 0
10 -139 0
26 -139 0
-10 -26 139 0
c gate 140 9 25 0
9 -140 0
25 -140 0
-9 -25 140 0
c gate 141 -139 -140 0
-139 -141 0
-140 -141 0
139 140 141 0
c gate 142 -138 141 0
-138 -142 0
141 -142 0
138 -141 142 0
c gate 143 -10 -26 0
-10 -143 0
-26 -143 0
10 26 143 0
c gate 144 -11 -27 0
-11 -144 0
-27 -144 0
11 27 144 0
c gate 145 -143 -144 0
-143 -145 0
-144 -145 0
143 144 145 0
c gate 146 -142 145 0
-142 -146 0
145 -146 0
142 -145 146 0
c gate 147 11 27 0
11 -147 0
27 -147 0
-11 -27 147 0
c gate 148 12 28 0
12 -148 0
28 -148 0
-12 -28 148 0
c gate 149 -147 -148 0
-147 -149 0
-148 -149 0
147 148 149 0
c gate 150 -146 149 0
-146 -150 0
149 -150 0
146 -149 150 0
c gate 151 -6 -22 0
-6 -151 0
-22 -151 0
6 22 151 0
c gate 152 -130 -151 0
-130 -152 0
-151 -152 0
130 151 152 0
c gate 153 -110 -152 0
-110 -153 0
-152 -153 0
110 152 153 0
c gate 154 -132 -153 0
-132 -154 0
-153 -154 0
132 153 154 0
c gate 155 -109 154 0
-109 -155 0
154 -155 0
109 -154 155 0
c gate 156 -136 -140 0
-136 -156 0
-140 -156 0
136 140 156 0
c gate 157 -155 156 0
-155 -157 0
156 -157 0
155 -156 157 0
c gate 158 -108 -143 0
-108 -158 0
-143 -158 0
108 143 158 0
c gate 159 -157 158 0
-157 -159 0
158 -159 0
157 -158 159 0
c gate 160 -139 -147 0
-139 -160 0
-147 -160 0
139 147 160 0
c gate 161 -159 160 0
-159 -161 0
160 -161 0
159 -160 161 0
c gate 162 -12 -28 0
-12 -162 0
-28 -162 0
12 28 162 0
c gate 163 -144 -162 0
-144 -163 0
-162 -163 0
144 162 163 0
c gate 164 -161 163 0
-161 -164 0
163 -164 0
161 -163 164 0
c gate 165 -37 94 0
-37 -165 0
94 -165 0
37 -94 165 0
c gate 166 -39 -79 0
-39 -166 0
-79 -166 0
39 79 166 0
c gate 167 -34 -84 0
-34 -167 0
-84 -167 0
34 84 167 0
c gate 168 -104 -167 0
-104 -168 0
-167 -168 0
104 167 168 0
c gate 169 -166 168 0
-166 -169 0
168 -169 0
166 -168 169 0
c gate 170 165 169 0
165 -170 0
169 -170 0
-165 -169 170 0
c gate 171 -164 170 0
-164 -171 0
170 -171 0
164 -170 171 0
c gate 172 -150 171 0
-150 -172 0
171 -172 0
150 -171 172 0
c gate 173 109 -154 0
109 -173 0
-154 -173 0
-109 154 173 0
c gate 174 -155 -173 0
-155 -174 0
-173 -174 0
155 173 174 0
c gate 175 109 134 0
109 -175 0
134 -175 0
-109 -134 175 0
c gate 176 -135 -175 0
-135 -176 0
-175 -176 0
135 175 176 0
c gate 177 174 -176 0
174 -177 0
-176 -177 0
-174 176 177 0
c gate 178 -172 177 0
-172 -178 0
177 -178 0
172 -177 178 0
c gate 179 114 115 0
114 -179 0
115 -179 0
-114 -115 179 0
c gate 180 -131 -152 0
-131 -180 0
-152 -180 0
131 152 180 0
c gate 181 179 -180 0
179 -181 0
-180 -181 0
-179 180 181 0
c gate 182 133 153 0
133 -182 0
153 -182 0
-133 -153 182 0
c gate 183 -181 -182 0
-181 -183 0
-182 -183 0
181 182 183 0
c gate 184 -174 176 0
-174 -184 0
176 -184 0
174 -176 184 0
c gate 185 -183 -184 0
-183 -185 0
-184 -185 0
183 184 185 0
c gate 186 -178 185 0
-178 -186 0
185 -186 0
178 -185 186 0
c gate 187 -107 186 0
-107 -187 0
186 -187 0
107 -186 187 0
c gate 188 -106 -187 0
-106 -188 0
-187 -188 0
106 187 188 0
c gate 189 -102 188 0
-102 -189 0
188 -189 0
102 -188 189 0
c gate 190 114 124 0
114 -190 0
124 -190 0
-114 -124 190 0
c gate 191 -180 -190 0
-180 -191 0
-190 -191 0
180 190 191 0
c gate 192 -172 -191 0
-172 -192 0
-191 -192 0
172 191 192 0
c gate 193 -107 -192 0
-107 -193 0
-192 -193 0
107 192 193 0
c gate 194 -94 -103 0
-94 -194 0
-103 -194 0
94 103 194 0
c gate 195 -193 -194 0
-193 -195 0
-194 -195 0
193 194 195 0
c gate 196 -101 -195 0
-101 -196 0
-195 -196 0
101 195 196 0
c gate 197 -189 -196 0
-189 -197 0
-196 -197 0
189 196 197 0
c gate 198 -103 -197 0
-103 -198 0
-197 -198 0
103 197 198 0
c PO
198 0
